100
300
50
0 0
17 30
78 43
2 12
54 0
90 4
70 61
0 30
68 45
52 33
67 1
17 85
24 36
29 49
17 61
68 76
19 14
2 72
47 27
30 1
7 73
37 9
57 54
42 98
24 62
84 85
39 14
85 28
26 53
78 5
43 33
46 13
27 48
50 68
4 64
59 0
57 64
8 29
15 84
18 28
39 54
51 13
15 89
77 9
6 49
12 64
32 57
94 80
86 50
4 14
60 80
0 0
50
60
40
50
70
70
60
40
70
30
30
50
50
30
30
30
50
50
70
60
40
40
60
40
30
50
60
40
50
70
70
60
40
70
30
30
50
50
30
30
30
50
50
70
60
40
40
60
40
30
